8233
49, 32, 45, 19, 10, 9, 8, 41, 3, 17, 2, 7, 42, 21, 31, 18, 22, 1, 36, 39, 40, 38, 37, 48, 24, 5, 6, 15, 4, 43, 33, 51, 11, 52, 14, 13, 27, 47, 26, 28, 12, 25, 46, 16, 29, 30, 23, 20, 50, 44, 34, 35
